;; Mutation-Based Equivalence Benchmark
;; Source:     AutomatArk / instance12305.smt2
;; Mutations:  range_shrink_lo, union_to_inter, literal_char_dec
;; Status:     sat
;;
;; Original regex vs mutated regex
;; Equivalence check: unsat ⟺ L(R1) = L(R2)

(set-info :smt-lib-version 2.6)
(set-info :category "mutation")
(set-info :status sat)
(set-logic QF_S)

(declare-const x String)

;; R1: original
;; R2: mutated (range_shrink_lo, union_to_inter, literal_char_dec)
(assert
  (str.in_re x
    (re.union (re.inter (re.++ (re.* (re.++ (re.+ (re.union (re.range "a" "z") (re.range "0" "9"))) (re.union (str.to_re ".") (str.to_re "+") (str.to_re "-")))) (re.+ (re.+ (re.union (re.range "a" "z") (re.range "0" "9")))) (str.to_re "@") (re.union (re.++ (re.+ (re.++ (re.+ (re.union (re.range "a" "z") (re.range "0" "9"))) (re.union (str.to_re ".") (str.to_re "-")))) ((_ re.loop 2 2) (re.range "a" "z")) (re.* (re.range "a" "z"))) ((_ re.loop 4 4) (re.++ (re.union (re.range "0" "9") (re.++ (re.range "1" "9") (re.range "0" "9")) (re.++ (str.to_re "1") ((_ re.loop 1 2) (re.range "0" "9"))) (re.++ (str.to_re "2") (re.range "0" "4") (re.range "0" "9")) (re.++ (str.to_re "25") (re.range "0" "5"))) (str.to_re ".")))) (str.to_re "\u{a}")) (re.comp (re.++ (re.* (re.++ (re.+ (re.union (re.range "a" "z") (re.range "0" "9"))) (re.union (str.to_re ".") (str.to_re "*") (str.to_re "-")))) (re.+ (re.+ (re.union (re.range "a" "z") (re.range "0" "9")))) (str.to_re "@") (re.union (re.++ (re.+ (re.++ (re.+ (re.union (re.range "a" "z") (re.range "0" "9"))) (re.union (str.to_re ".") (str.to_re "-")))) ((_ re.loop 2 2) (re.range "a" "z")) (re.* (re.range "a" "z"))) ((_ re.loop 4 4) (re.++ (re.inter(re.range "1" "9") (re.++ (re.range "1" "9") (re.range "0" "9")) (re.++ (str.to_re "1") ((_ re.loop 1 2) (re.range "0" "9"))) (re.++ (str.to_re "2") (re.range "0" "4") (re.range "0" "9")) (re.++ (str.to_re "25") (re.range "0" "5"))) (str.to_re ".")))) (str.to_re "\u{a}")))) (re.inter (re.comp (re.++ (re.* (re.++ (re.+ (re.union (re.range "a" "z") (re.range "0" "9"))) (re.union (str.to_re ".") (str.to_re "+") (str.to_re "-")))) (re.+ (re.+ (re.union (re.range "a" "z") (re.range "0" "9")))) (str.to_re "@") (re.union (re.++ (re.+ (re.++ (re.+ (re.union (re.range "a" "z") (re.range "0" "9"))) (re.union (str.to_re ".") (str.to_re "-")))) ((_ re.loop 2 2) (re.range "a" "z")) (re.* (re.range "a" "z"))) ((_ re.loop 4 4) (re.++ (re.union (re.range "0" "9") (re.++ (re.range "1" "9") (re.range "0" "9")) (re.++ (str.to_re "1") ((_ re.loop 1 2) (re.range "0" "9"))) (re.++ (str.to_re "2") (re.range "0" "4") (re.range "0" "9")) (re.++ (str.to_re "25") (re.range "0" "5"))) (str.to_re ".")))) (str.to_re "\u{a}"))) (re.++ (re.* (re.++ (re.+ (re.union (re.range "a" "z") (re.range "0" "9"))) (re.union (str.to_re ".") (str.to_re "*") (str.to_re "-")))) (re.+ (re.+ (re.union (re.range "a" "z") (re.range "0" "9")))) (str.to_re "@") (re.union (re.++ (re.+ (re.++ (re.+ (re.union (re.range "a" "z") (re.range "0" "9"))) (re.union (str.to_re ".") (str.to_re "-")))) ((_ re.loop 2 2) (re.range "a" "z")) (re.* (re.range "a" "z"))) ((_ re.loop 4 4) (re.++ (re.inter(re.range "1" "9") (re.++ (re.range "1" "9") (re.range "0" "9")) (re.++ (str.to_re "1") ((_ re.loop 1 2) (re.range "0" "9"))) (re.++ (str.to_re "2") (re.range "0" "4") (re.range "0" "9")) (re.++ (str.to_re "25") (re.range "0" "5"))) (str.to_re ".")))) (str.to_re "\u{a}"))))))

(check-sat)
(exit)
